3 
4 
5  04 19 33 40 48 55 
6  03 10 17 25 32 40 47 55 
7  02 10 17 25 32 40 47 55 
8  02 10 17 25 32 40 47 55 
9  02 10 17 25 32 40 47 55 
10  02 10 17 25 32 40 47 55 
11  02 10 17 25 32 40 47 55 
12  02 10 17 25 32 40 47 55 
13  02 10 17 25 32 40 47 55 
14  02 10 17 25 32 39 46 55 
15  02 10 17 25 32 40 47 55 
16  02 10 17 25 32 40 47 55 
17  02 10 17 25 32 40 47 55 
18  02 10 17 25 32 39 46 54 
19  01 08 16 23 31 38 46 53 
20  08 23 38 55 
21  10 25 40 55 
22  10 25 40 
23 
